
Gurobi 10.0.1 (win64) logging started Sat Jun 10 18:09:34 2023

Set parameter LogFile to value "results/log/Fattahi_setup_10_modified_deadline.log"
Gurobi Optimizer version 10.0.1 build v10.0.1rc0 (win64)

CPU model: AMD Ryzen 7 3700X 8-Core Processor, instruction set [SSE2|AVX|AVX2]
Thread count: 8 physical cores, 16 logical processors, using up to 16 threads

Optimize a model with 153 rows, 205 columns and 490 nonzeros
Model fingerprint: 0xacbc1844
Variable types: 0 continuous, 205 integer (184 binary)
Coefficient statistics:
  Matrix range     [1e+00, 1e+09]
  Objective range  [1e+00, 1e+00]
  Bounds range     [1e+00, 1e+00]
  RHS range        [1e+00, 3e+09]
Warning: Model contains large matrix coefficients
Warning: Model contains large rhs
         Consider reformulating model or setting NumericFocus parameter
         to avoid numerical issues.
Presolve removed 65 rows and 151 columns
Presolve time: 0.00s
Presolved: 88 rows, 54 columns, 343 nonzeros
Variable types: 0 continuous, 54 integer (34 binary)

Root relaxation: objective 1.237000e+03, 17 iterations, 0.00 seconds (0.00 work units)

    Nodes    |    Current Node    |     Objective Bounds      |     Work
 Expl Unexpl |  Obj  Depth IntInf | Incumbent    BestBd   Gap | It/Node Time

     0     0 1237.00003    0    9          - 1237.00003      -     -    0s
H    0     0                    2156.0000000 1237.00003  42.6%     -    0s
     0     0 1272.00000    0   11 2156.00000 1272.00000  41.0%     -    0s
H    0     0                    2142.0000000 1272.00000  40.6%     -    0s
H    0     0                    1861.0000000 1272.00000  31.6%     -    0s
H    0     0                    1778.0000000 1272.00000  28.5%     -    0s
H    0     0                    1702.0000000 1272.00000  25.3%     -    0s
     0     0 1281.00000    0   13 1702.00000 1281.00000  24.7%     -    0s
     0     0 1281.00000    0   13 1702.00000 1281.00000  24.7%     -    0s
H    0     0                    1642.0000000 1281.00000  22.0%     -    0s
     0     0 1289.00000    0   11 1642.00000 1289.00000  21.5%     -    0s
     0     0 1296.00001    0   10 1642.00000 1296.00001  21.1%     -    0s
     0     0 1299.00000    0   10 1642.00000 1299.00000  20.9%     -    0s
     0     2 1299.00000    0   10 1642.00000 1299.00000  20.9%     -    0s
H   35    28                    1617.0000000 1299.00000  19.7%   3.5    0s
*   74    46               9    1599.0000000 1299.00000  18.8%   2.9    0s

Cutting planes:
  Learned: 2
  Implied bound: 1
  MIR: 1
  Flow cover: 8
  Inf proof: 1
  RLT: 1

Explored 317 nodes (959 simplex iterations) in 0.04 seconds (0.01 work units)
Thread count was 16 (of 16 available processors)

Solution count 8: 1599 1617 1642 ... 2156

Optimal solution found (tolerance 1.00e-04)
Best objective 1.599000000000e+03, best bound 1.599000000000e+03, gap 0.0000%
Warning: variable name "y[job:0, stage:0, machine:1]" has a space
Warning: constraint name "precedence between 1,0 to 0,0 if x_[j,l,h,z,i]=1" has a space
Warning: to let Gurobi read it back, use rlp format
Warning: variable name "y[job:0, stage:0, machine:1]" has a space
Warning: constraint name "precedence between 1,0 to 0,0 if x_[j,l,h,z,i]=1" has a space
Warning: default variable names used to write mps file
Warning: default constraint names used to write mps file
Warning: variable name "y[job:0, stage:0, machine:1]" has a space
Warning: default variable names used to write solution file
